c --- [ banner ] -------------------------------------------------------------
c 
c CaDiCaL Radically Simplified CDCL SAT Solver
c Copyright (c) 2016-2021 A. Biere, M. Fleury, N. Froleyks
c 
c Version 1.5.2 a5f15211db36c3956764e18194dd5bd63bf3b5e6
c g++ (GCC) 9.3.0 -Wall -Wextra -O3 -DNDEBUG
c Fri Oct 21 01:27:37 EDT 2022 Linux gra-login3 3.10.0-1160.66.1.el7.x86_64 x86_64
c 
c --- [ limit ] --------------------------------------------------------------
c 
c setting conflict limit to 200000 conflicts (due to '200000')
c 
c --- [ parsing input ] ------------------------------------------------------
c 
c reading DIMACS file from '33.cubes1042.adj'
c opening file to read '33.cubes1042.adj'
c found 'p cnf 6160 1595471' header
c parsed 1595471 clauses in 19.26 seconds process time
c closing file '33.cubes1042.adj'
c after reading 1457566748 bytes 1390.0 MB
c 
c --- [ options ] ------------------------------------------------------------
c 
c all options are set to their default value
c 
c --- [ solving ] ------------------------------------------------------------
c 
c time measured in process time since initialization
c 
c  seconds    reductions  redundant   irredundant
c          MB     restarts       trail       variables
c            level   conflicts       glue         remaining
c 
c * 19.26 1365  0 0   0    0    0  0% 0 1595422 2350 38%
c { 20.10 1404  0 0   0    0    0  0% 0 1595422 2350 38%
c i 20.25 1404  1 0   0    1    0 19% 0 1595422 2254 37%
c i 20.25 1404  1 0   0    2    0 16% 0 1595422 2242 36%
c i 20.55 1417 865 0   0    6    3 33% 1 1595422 2235 36%
c i 21.01 1433 962 0   0   12    7 36% 2 1595422 2230 36%
c i 21.54 1453 640 0   0   28   21 32% 3 1595422 2191 36%
c i 21.63 1455 693 0   0   32   23 35% 3 1595422 2170 35%
c i 22.05 1468 696 0   1   36   24 36% 3 1595422 2143 35%
c i 22.38 1474 578 0   2   44   30 34% 4 1595422 2142 35%
c i 23.64 1486 213 0  21  126   93 30% 15 1595422 2141 35%
c i 23.72 1487 207 0  22  132   96 30% 16 1595422 2135 35%
c i 23.76 1487 199 0  25  140  101 30% 17 1595422 2128 35%
c i 23.77 1487 197 0  25  145  102 30% 17 1595422 2124 34%
c i 23.84 1488 194 0  27  152  107 29% 19 1595422 2123 34%
c i 23.85 1488 192 0  28  156  110 29% 18 1595422 2122 34%
c i 24.47 1491 144 0  43  225  155 28% 19 1595422 2121 34%
c i 24.65 1491 137 0  49  242  166 28% 19 1595422 2120 34%
c - 28.76 1401 114 1  51  305  202 28% 18 139350 2120 34%
c i 29.05 1368 102 1  56  358  246 28% 18 139350 2119 34%
c 
c  seconds     reductions  redundant   irredundant
c          MB      restarts       trail       variables
c             level   conflicts       glue         remaining
c 
c i 29.06 1368 100 1  56  365  252 28% 18 139350 2118 34%
c i 29.06 1368 99 1  56  372  256 28% 18 139350 2117 34%
c i 29.08 1368 92 1  56  407  285 28% 17 139350 2116 34%
c i 29.10 1368 87 1  56  430  304 28% 17 139350 2115 34%
c i 29.11 1368 83 1  56  465  330 28% 16 139350 2114 34%
c i 29.11 1368 83 1  56  466  330 28% 16 139350 2113 34%
c i 29.11 1368 82 1  56  467  330 28% 16 139350 2112 34%
c i 29.12 1368 74 1  56  529  369 28% 16 139350 2111 34%
c i 29.12 1368 74 1  56  531  370 28% 15 139350 2110 34%
c i 29.12 1368 74 1  56  532  370 28% 15 139350 2109 34%
c i 29.12 1368 73 1  56  533  370 28% 15 139350 2108 34%
c i 29.13 1368 72 1  56  546  378 28% 15 139350 2107 34%
c i 29.13 1368 68 1  56  589  408 28% 15 139350 2106 34%
c i 29.14 1368 66 1  56  613  424 28% 14 139350 2105 34%
c i 29.15 1368 66 1  56  619  429 28% 15 139350 2104 34%
c i 29.15 1368 66 1  56  620  429 28% 15 139350 2103 34%
c i 29.15 1368 64 1  56  636  442 28% 15 139350 2102 34%
c i 29.16 1368 64 1  56  637  442 28% 15 139350 2101 34%
c i 29.16 1368 64 1  56  638  442 28% 15 139350 2100 34%
c i 29.16 1368 64 1  56  639  442 28% 15 139350 2099 34%
c 
c  seconds    reductions  redundant   irredundant
c          MB     restarts       trail       variables
c            level   conflicts       glue         remaining
c 
c i 29.16 1368 64 1  56  640  442 28% 15 139350 2098 34%
c i 29.21 1368 63 1  56  659  459 28% 15 139350 2096 34%
c i 29.25 1368 63 1  56  665  462 28% 15 139350 2095 34%
c i 29.29 1368 63 1  57  673  469 28% 15 139350 2094 34%
c i 29.31 1368 63 1  59  679  474 28% 15 139350 2093 34%
c i 29.39 1368 64 1  62  702  488 28% 15 139350 2092 34%
c i 29.41 1368 64 1  64  706  491 28% 16 139350 2091 34%
c i 29.49 1368 65 1  68  724  506 28% 16 139350 2090 34%
c i 29.50 1368 65 1  69  726  507 28% 16 139350 2089 34%
c i 29.52 1368 64 1  71  741  517 28% 16 139350 2088 34%
c i 29.55 1368 63 1  78  764  537 28% 17 139350 2087 34%
c i 29.55 1368 63 1  79  766  538 28% 17 139350 2086 34%
c i 29.55 1368 63 1  79  767  538 28% 17 139350 2085 34%
c i 29.55 1368 63 1  79  772  542 28% 17 139350 2084 34%
c i 29.56 1368 62 1  82  781  549 28% 17 139350 2083 34%
c i 29.57 1368 62 1  84  789  551 28% 17 139350 2082 34%
c i 29.57 1368 62 1  85  791  552 28% 17 139350 2081 34%
c i 29.57 1368 62 1  85  792  552 28% 17 139350 2080 34%
c i 29.57 1368 62 1  86  793  552 28% 17 139350 2079 34%
c i 29.57 1368 62 1  86  794  552 28% 17 139350 2078 34%
c 
c  seconds    reductions  redundant   irredundant
c          MB     restarts       trail       variables
c            level   conflicts       glue         remaining
c 
c i 29.57 1368 61 1  86  795  552 28% 17 139350 2077 34%
c i 29.57 1368 61 1  88  801  556 28% 17 139350 2076 34%
c i 29.57 1368 61 1  88  802  556 28% 17 139350 2075 34%
c i 29.58 1368 61 1  88  808  560 28% 16 139350 2074 34%
c i 29.58 1368 61 1  88  810  561 28% 16 139350 2073 34%
c i 29.58 1368 60 1  88  817  565 28% 16 139350 2072 34%
c i 29.59 1368 59 1  88  831  571 28% 16 139350 2071 34%
c i 29.60 1368 60 1  88  832  571 28% 16 139350 2070 34%
c i 29.75 1368 57 1 101  929  653 29% 17 139350 2069 34%
c - 29.99 1413 54 2 101  992  602 29% 17 139197 2069 34%
c i 30.00 1413 54 2 101  996  603 29% 17 139197 2068 34%
c } 30.00 1413 54 2 101 1002  605 29% 17 139197 2068 34%
c [ 30.00 1413  0 2 101 1002  605  0% 0 139197 2068 34%
c O 30.01 1413  2 2 101 1003  606 18% 1 139197 2068 34%
c i 30.04 1413 13 2 101 1015  616 29% 6 139197 2067 34%
c i 30.04 1413 12 2 101 1019  619 30% 6 139197 2066 34%
c i 30.05 1413 10 2 101 1025  623 30% 6 139197 2065 34%
c i 30.05 1413  9 2 101 1030  625 31% 6 139197 2064 34%
c i 30.06 1413  9 2 101 1052  640 31% 6 139197 2063 33%
c i 30.06 1413  9 2 101 1062  645 31% 7 139197 2062 33%
c 
c  seconds    reductions  redundant  irredundant
c          MB     restarts       trail      variables
c            level   conflicts       glue        remaining
c 
c i 30.08 1413 11 2 101 1096  662 31% 9 139197 2061 33%
c i 30.08 1413 11 2 101 1099  664 31% 9 139197 2060 33%
c i 30.11 1413 10 2 101 1217  712 31% 8 139197 2059 33%
c i 30.13 1413 10 2 101 1263  724 31% 8 139197 2058 33%
c i 30.13 1413 10 2 101 1266  726 31% 8 139197 2057 33%
c i 30.13 1413 11 2 101 1290  741 31% 9 139197 2056 33%
c i 30.13 1413 11 2 101 1296  746 31% 8 139197 2055 33%
c i 30.17 1413 12 2 101 1466  817 31% 9 139197 2054 33%
c i 30.17 1413 12 2 101 1472  817 31% 10 139197 2053 33%
c i 30.19 1413 13 2 101 1590  880 30% 11 139197 2052 33%
c i 30.20 1413 14 2 101 1604  882 30% 11 139197 2051 33%
c i 30.20 1413 14 2 101 1607  883 30% 11 139197 2050 33%
c i 30.20 1413 14 2 101 1639  901 31% 11 139197 2049 33%
c i 30.20 1413 14 2 101 1641  901 31% 11 139197 2048 33%
c i 30.21 1413 15 2 101 1692  930 31% 12 139197 2047 33%
c i 30.25 1413 17 2 101 1952 1064 30% 14 139197 2046 33%
c i 30.25 1413 16 2 101 1954 1064 30% 14 139197 2045 33%
c - 30.38 1411 16 3 101 2021  826 31% 13 139128 2045 33%
c i 30.50 1411 16 3 102 2135  881 47% 13 139128 2044 33%
c i 30.52 1411 16 3 102 2222  912 46% 13 139128 2043 33%
c 
c  seconds    reductions  redundant   irredundant
c          MB     restarts       trail       variables
c            level   conflicts       glue         remaining
c 
c i 30.53 1411 16 3 102 2285  938 45% 13 139128 2042 33%
c i 30.53 1411 16 3 102 2289  941 45% 13 139128 2035 33%
c i 30.54 1411 16 3 102 2309  952 45% 13 139128 2034 33%
c i 30.56 1411 16 3 102 2435 1018 44% 13 139128 2033 33%
c ] 30.70 1411 18 3 102 3003 1319 45% 15 139128 2033 33%
c { 30.70 1411 54 3 102 3003 1319 86% 17 139128 2033 33%
c F 30.72 1411 54 3 102 3004 1320 86% 17 139128 2031 33%
c i 30.86 1411 50 3 102 3119 1387 82% 16 139128 2030 33%
c i 30.86 1411 50 3 102 3120 1387 82% 16 139128 2029 33%
c i 30.86 1411 50 3 102 3121 1387 82% 16 139128 2028 33%
c i 30.93 1411 47 3 103 3252 1485 78% 16 139128 2027 33%
c i 31.07 1411 47 3 117 3312 1537 76% 16 139128 2026 33%
c i 31.10 1411 47 3 119 3321 1545 76% 16 139128 2025 33%
c i 31.20 1411 48 3 129 3364 1580 74% 16 139128 2024 33%
c i 31.24 1411 48 3 136 3393 1604 74% 17 139128 2023 33%
c - 31.35 1369 48 4 136 3393 1267 74% 17 138952 2023 33%
c i 31.47 1369 48 4 149 3456 1324 72% 17 138952 2022 33%
c i 31.71 1369 45 4 163 3610 1423 69% 17 138952 2021 33%
c i 31.95 1369 42 4 165 3878 1616 66% 17 138952 2020 33%
c i 32.02 1369 40 4 169 4005 1708 64% 17 138952 2019 33%
c 
c  seconds    reductions  redundant   irredundant
c          MB     restarts       trail       variables
c            level   conflicts       glue         remaining
c 
c i 32.69 1369 32 4 178 4929 2262 58% 15 138952 2018 33%
c d 32.96 1369 32 4 178 5000 2286 58% 15 120868 2002 32%
c 2 32.98 1369 32 4 178 5000 3101 58% 15 120859 1977 32%
c p 35.41 1369 32 4 178 5000 7982 58% 15 120859 1907 31%
c d 35.56 1369 32 4 178 5000 7393 58% 15 120264 1902 31%
c d 35.59 1369 32 4 178 5000 7391 58% 15 120263 1901 31%
c - 35.88 1369 31 5 178 5107 1811 57% 15 120263 1901 31%
c # 36.62 1369 28 5 207 6006 2392 54% 14 120263 1901 31%
c } 37.13 1369 26 5 276 7005 3032 51% 14 120263 1901 31%
c [ 37.13 1369 18 5 276 7005 3032 45% 15 120263 1901 31%
c - 37.17 1369 18 6 276 7051 2314 45% 15 120263 1901 31%
c - 37.76 1369 17 7 278 9319 2665 44% 14 120263 1901 31%
c I 37.99 1369 17 7 278 10007 3040 44% 14 120263 1901 31%
c - 39.01 1369 31 8 280 11913 3258 43% 24 120263 1901 31%
c - 40.42 1369 34 9 281 14830 3834 43% 26 120263 1901 31%
c ] 40.54 1369 34 9 281 15005 3961 43% 26 120263 1901 31%
c { 40.54 1369 26 9 281 15005 3961 51% 14 120263 1901 31%
c 2 40.56 1369 26 9 281 15005 4780 51% 14 120257 1901 31%
c p 41.02 1369 26 9 281 15005 9007 51% 14 120257 1901 31%
c B 41.07 1369 26 9 282 15013 9014 51% 14 120257 1901 31%
c 
c  seconds    reductions   redundant   irredundant
c          MB     restarts        trail       variables
c            level    conflicts       glue         remaining
c 
c } 42.00 1369 23 9 365 16694 9964 49% 14 120257 1901 31%
c 1 42.00 1369 23 9 365 16694 9964 49% 14 120257 1901 31%
c 
c --- [ writing output ] -----------------------------------------------------
c 
c writing simplified CNF to DIMACS file 'simp/33.cubes1042.adj.simp1'
c * 42.00 1369 23 9 365 16694 9964 49% 14 120257 1901 31%
c opening file to write 'simp/33.cubes1042.adj.simp1'
c writing 'p cnf 6160 120257' header
c closing file 'simp/33.cubes1042.adj.simp1'
c after writing 33332464 bytes 31.8 MB
c wrote 120257 clauses in 0.24 seconds process time
c 
c --- [ writing extension ] --------------------------------------------------
c 
c writing extension stack to 'simp/33.cubes1042.adj.ext1'
c opening file to write 'simp/33.cubes1042.adj.ext1'
c closing file 'simp/33.cubes1042.adj.ext1'
c after writing 17202 bytes 0.0 MB
c wrote 1137 witnesses in 0.00 seconds process time
c 
c --- [ result ] -------------------------------------------------------------
c 
s SATISFIABLE
c 
c --- [ run-time profiling ] -------------------------------------------------
c 
c process time taken by individual solving procedures
c (percentage relative to process time for solving)
c 
c        19.46   85.57% search
c        19.26   84.69% parse
c        14.51   63.82% unstable
c         4.11   18.08% stable
c         3.28   14.43% simplify
c         2.89   12.71% probe
c         0.84    3.68% lucky
c         0.03    0.14% ternary
c   =================================
c        22.74   53.83% solve
c 
c last line shows process time for solving
c (percentage relative to total process time)
c 
c --- [ statistics ] ---------------------------------------------------------
c 
c chronological:              3281        19.65 %  of conflicts
c conflicts:                 16694       734.08    per second
c decisions:                 40110      1763.73    per second
c fixed:                      1093        17.74 %  of all variables
c learned:                   16346        97.92 %  per conflict
c learned_lits:            1831807       100.00 %  learned literals
c minimized:                     0         0.00 %  learned literals
c shrunken:                1191712        65.06 %  learned literals
c minishrunken:             107677         5.88 %  learned literals
c propagations:            2463540         0.11 M  per second
c reduced:                    5632        33.74 %  per conflict
c rephased:                      5      3338.80    interval
c restarts:                    365        45.74    interval
c stabilizing:                   2        59.91 %  of conflicts
c substituted:                  22         0.36 %  of all variables
c subsumed:                   5722         0.17 %  of all clauses
c ternary:                    1639         0.63 %  of resolved
c weakened:                     44         2.00    average size
c 
c seconds are measured in process time for solving
c 
c --- [ resources ] ----------------------------------------------------------
c 
c total process time since initialization:        42.25    seconds
c total real time since initialization:           42.35    seconds
c maximum resident set size of process:         1491.54    MB
c 
c --- [ shutting down ] ------------------------------------------------------
c 
c exit 10
WARNING! DIMACS header mismatch: wrong number of variables.
============================[ Problem Statistics ]=============================
|                                                                             |
|  Number of variables:          6120                                         |
|  Number of clauses:          120267                                         |
|  Parse time:                   0.44 s                                       |
|  Simplification time:          0.01 s                                       |
|                                                                             |
============================[ Search Statistics ]====================================================
| Conflicts |          ORIGINAL         |          LEARNT          | Num Sols |      SUBGRAPHS      |
|           |    Vars  Clauses Literals |    Limit  Clauses Lit/Cl |          | Canonical Noncanon. |
=====================================================================================================
|       100 |    6009   120267  7360282 |     2000      100     50 |        0 |        14         0 |
|       253 |    6009   120270  7360376 |     2000      253     44 |        0 |        27         3 |
|       497 |    6009   120289  7360665 |     2000      497     44 |        0 |        36        22 |
|       849 |    6009   120304  7360954 |     2000      849     47 |        0 |        60        37 |
|      1378 |    6009   120327  7361581 |     2000     1378     49 |        0 |        85        60 |
|      2142 |    6009   120332  7361703 |     3602     1144     36 |        0 |       108        65 |
|     10191 |    6009   127242  7433593 |     6303     4894     10 |        0 |       777      6975 |
|     17505 |    5890   132848  7481866 |     8784     5286     12 |        0 |       955     12581 |
=====================================================================================================
Number of solutions   : 0
Canonical subgraphs   : 966            (16 /sec)
          order  3    : 1              (200000 /sec)
          order  4    : 1              (500000 /sec)
          order  5    : 1              (250000 /sec)
          order  6    : 1              (52632 /sec)
          order  7    : 1              (8264 /sec)
          order  8    : 2              (1356 /sec)
          order  9    : 4              (239 /sec)
          order 10    : 9              (45 /sec)
          order 11    : 30             (19 /sec)
          order 12    : 108            (12 /sec)
          order 13    : 808            (16 /sec)
          order 14    : 0              (-nan /sec)
          order 15    : 0              (-nan /sec)
          order 16    : 0              (-nan /sec)
          order 17    : 0              (-nan /sec)
          order 18    : 0              (-nan /sec)
          order 19    : 0              (-nan /sec)
          order 20    : 0              (-nan /sec)
          order 21    : 0              (-nan /sec)
          order 22    : 0              (-nan /sec)
Noncanonical subgraphs: 12647          (160 /sec)
          order  3    : 0              (-nan /sec)
          order  4    : 0              (-nan /sec)
          order  5    : 0              (-nan /sec)
          order  6    : 0              (-nan /sec)
          order  7    : 0              (-nan /sec)
          order  8    : 0              (-nan /sec)
          order  9    : 0              (-nan /sec)
          order 10    : 0              (-nan /sec)
          order 11    : 0              (-nan /sec)
          order 12    : 0              (-nan /sec)
          order 13    : 575            (2319 /sec)
          order 14    : 12072          (153 /sec)
          order 15    : 0              (-nan /sec)
          order 16    : 0              (-nan /sec)
          order 17    : 0              (-nan /sec)
          order 18    : 0              (-nan /sec)
          order 19    : 0              (-nan /sec)
          order 20    : 0              (-nan /sec)
          order 21    : 0              (-nan /sec)
Canonicity checking   : 60.3356 s
Noncanonicity checking: 79.2422 s
Total canonicity time : 139.578 s
database reductions   : 5
restarts              : 65
conflicts             : 19399          (134 /sec)
decisions             : 41580          (0.00 % random) (287 /sec)
propagations          : 2041433        (14077 /sec)
conflict literals     : 363405         (56.97 % deleted)
actual reward         : 0.066621
Memory used           : 62.00 MB
CPU time              : 145.015 s

UNSATISFIABLE
